num_files = 66;
file_bytes = [9399, 11533, 3931, 8266, 24500, 906, 9548, 8079, 4664, 7850, 2307, 2908, 6332, 6149, 7887, 14587, 9433, 4664, 7318, 12821, 5841, 14067, 8196, 6636, 7661, 1852, 8371, 1714, 5373, 11476, 10387, 9042, 7921, 13444, 7399, 5104, 9072, 1076, 8313, 8427, 722, 4982, 7480, 1111, 5746, 13870, 29329, 1814, 3528, 8023, 4714, 8452, 6060, 8572, 9913, 11833, 9955, 1438, 6639, 10774, 2774, 9947, 9905, 3895, 7051, 6996];
file_name = ["71_INVITES.md", "71_SHARD_CHALLENGES.md", "AGENT_EVAL.md", "AGENT_GOSSIP_PROTOCOL.md", "AIRDROP_SOP.md", "BBS_ARCHITECTURE.md", "BBS_WASM_CLOSURE.md", "CHALLENGE_RECON.md", "CICADA71_LEVEL0_BOOTSTRAP.md", "CICADA71_LEVEL0.md", "CICADA71_LEVEL1_JINVARIANT.md", "CICADA71_LEVEL2_HAYSTACK.md", "CICADA71_LEVEL3_TIKKUN.md", "CICADA71_LEVEL4_NAME_OF_GOD.md", "CICADA71_LEVEL5_DIAL_JINVARIAN", "CICADA71.md", "CICADA71_N00B_GUIDE.md", "COMPUTE_PARTITION.md", "CONTRIBUTING.md", "CRYPTO_TESTNETS.md", "DIAL_JINVARIANT_URL.md", "DMZ_WORLD.md", "DOCUMENTATION.md", "ENOCHIAN_JINVARIANT.md", "FREN_GRAPH.md", "FRENS.md", "FRENS_PHONE_NUMBER.md", "HARBOR_INTEGRATION.md", "INTERGALACTIC.md", "INTROSPECTION.md", "INVITATION_PLANETARY_CONJUNCTI", "LAYER0_DHT_ONION.md", "META_LOBSTER_RESONANCE.md", "METAMEME_COIN.md", "MORSE_CODE_TOWERS.md", "OCCULT_TEXTS.md", "P2P_PROTOCOLS.md", "PAXOS_MARKET.md", "PLANETARY_SONG_INVITATION.md", "PLANETARY_SONG_PROOF.md", "PLUGIN_TAPE.md", "PRODUCTION_PLAN.md", "PROOF_CONJUNCTION.md", "README_CONTRIBUTORS.md", "README.md", "RETRO_DEVICES.md", "RFC-71-PAXOS-MEME.txt", "RFC_TLZ.md", "RUST_CONVERSION.md", "SELINUX_ZONES.md", "SHARD_KNOWLEDGE_REPORT.md", "SNEAKERNET.md", "SOP_CHI_AWAKENING.md", "SOP_GLOBAL_CHI_AWAKENING.md", "SOP_HECKE_MAASS_AWAKENING.md", "SOP_J_INVARIANT_PLUGIN.md", "SOP_MATHLIB_CONSUMPTION.md", "SUMMARY.md", "TAROT_PATH.md", "TELECOM_SS7.md", "WASM_BBS.md", "ZERO_TRUST_FHE.md", "ZKTLS_FRENS_CLOSURE.md", "ZKTLS_PARQUET.md", "ZKTLS_RDFA_INVITE.md", "ZOS_BBS_INTEGRATION.md"];

num_platforms = 10;
platform_name = ["tweet280", "discord", "instagram", "tiktok", "solana-memo", "solana-account", "nft-tile", "mastodon", "bluesky", "eth-sepolia"];
capacity = [55, 972, 537, 537, 558, 10240, 196600, 112, 60, 10240];
max_carriers = [50, 30, 30, 30, 200, 200, 10, 30, 30, 200];
cost_microusd = [0, 0, 0, 0, 0, 0, 0, 0, 0, 0];

num_eccs = 3;
ecc_name = ["none", "hamming743", "golay24128"];
ecc_n = [1, 7, 24];
ecc_k = [1, 4, 12];
ecc_d = [1, 3, 8];
ecc_expansion_pct = [100, 200, 200];

max_total_carriers = 1000;
devnet = true;
